c *********************************
c * Circuit generated by BenCGen
c *
c * RippleCarryAdderSubtractor_75_75_75_OutSunT
c *
c * Ports with 1 gate(s): 2
c * Ports with 2 gate(s): 452
c * Total gates: 454
c *********************************
p cnf 604 1586
1 228 0
-1 -228 0
1 -227 0
228 -227 0
-1 -228 227 0
227 229 0
-227 -229 0
76 227 -230 0
-76 227 230 0
76 -227 230 0
-76 -227 -230 0
77 227 -231 0
-77 227 231 0
77 -227 231 0
-77 -227 -231 0
78 227 -232 0
-78 227 232 0
78 -227 232 0
-78 -227 -232 0
79 227 -233 0
-79 227 233 0
79 -227 233 0
-79 -227 -233 0
80 227 -234 0
-80 227 234 0
80 -227 234 0
-80 -227 -234 0
81 227 -235 0
-81 227 235 0
81 -227 235 0
-81 -227 -235 0
82 227 -236 0
-82 227 236 0
82 -227 236 0
-82 -227 -236 0
83 227 -237 0
-83 227 237 0
83 -227 237 0
-83 -227 -237 0
84 227 -238 0
-84 227 238 0
84 -227 238 0
-84 -227 -238 0
85 227 -239 0
-85 227 239 0
85 -227 239 0
-85 -227 -239 0
86 227 -240 0
-86 227 240 0
86 -227 240 0
-86 -227 -240 0
87 227 -241 0
-87 227 241 0
87 -227 241 0
-87 -227 -241 0
88 227 -242 0
-88 227 242 0
88 -227 242 0
-88 -227 -242 0
89 227 -243 0
-89 227 243 0
89 -227 243 0
-89 -227 -243 0
90 227 -244 0
-90 227 244 0
90 -227 244 0
-90 -227 -244 0
91 227 -245 0
-91 227 245 0
91 -227 245 0
-91 -227 -245 0
92 227 -246 0
-92 227 246 0
92 -227 246 0
-92 -227 -246 0
93 227 -247 0
-93 227 247 0
93 -227 247 0
-93 -227 -247 0
94 227 -248 0
-94 227 248 0
94 -227 248 0
-94 -227 -248 0
95 227 -249 0
-95 227 249 0
95 -227 249 0
-95 -227 -249 0
96 227 -250 0
-96 227 250 0
96 -227 250 0
-96 -227 -250 0
97 227 -251 0
-97 227 251 0
97 -227 251 0
-97 -227 -251 0
98 227 -252 0
-98 227 252 0
98 -227 252 0
-98 -227 -252 0
99 227 -253 0
-99 227 253 0
99 -227 253 0
-99 -227 -253 0
100 227 -254 0
-100 227 254 0
100 -227 254 0
-100 -227 -254 0
101 227 -255 0
-101 227 255 0
101 -227 255 0
-101 -227 -255 0
102 227 -256 0
-102 227 256 0
102 -227 256 0
-102 -227 -256 0
103 227 -257 0
-103 227 257 0
103 -227 257 0
-103 -227 -257 0
104 227 -258 0
-104 227 258 0
104 -227 258 0
-104 -227 -258 0
105 227 -259 0
-105 227 259 0
105 -227 259 0
-105 -227 -259 0
106 227 -260 0
-106 227 260 0
106 -227 260 0
-106 -227 -260 0
107 227 -261 0
-107 227 261 0
107 -227 261 0
-107 -227 -261 0
108 227 -262 0
-108 227 262 0
108 -227 262 0
-108 -227 -262 0
109 227 -263 0
-109 227 263 0
109 -227 263 0
-109 -227 -263 0
110 227 -264 0
-110 227 264 0
110 -227 264 0
-110 -227 -264 0
111 227 -265 0
-111 227 265 0
111 -227 265 0
-111 -227 -265 0
112 227 -266 0
-112 227 266 0
112 -227 266 0
-112 -227 -266 0
113 227 -267 0
-113 227 267 0
113 -227 267 0
-113 -227 -267 0
114 227 -268 0
-114 227 268 0
114 -227 268 0
-114 -227 -268 0
115 227 -269 0
-115 227 269 0
115 -227 269 0
-115 -227 -269 0
116 227 -270 0
-116 227 270 0
116 -227 270 0
-116 -227 -270 0
117 227 -271 0
-117 227 271 0
117 -227 271 0
-117 -227 -271 0
118 227 -272 0
-118 227 272 0
118 -227 272 0
-118 -227 -272 0
119 227 -273 0
-119 227 273 0
119 -227 273 0
-119 -227 -273 0
120 227 -274 0
-120 227 274 0
120 -227 274 0
-120 -227 -274 0
121 227 -275 0
-121 227 275 0
121 -227 275 0
-121 -227 -275 0
122 227 -276 0
-122 227 276 0
122 -227 276 0
-122 -227 -276 0
123 227 -277 0
-123 227 277 0
123 -227 277 0
-123 -227 -277 0
124 227 -278 0
-124 227 278 0
124 -227 278 0
-124 -227 -278 0
125 227 -279 0
-125 227 279 0
125 -227 279 0
-125 -227 -279 0
126 227 -280 0
-126 227 280 0
126 -227 280 0
-126 -227 -280 0
127 227 -281 0
-127 227 281 0
127 -227 281 0
-127 -227 -281 0
128 227 -282 0
-128 227 282 0
128 -227 282 0
-128 -227 -282 0
129 227 -283 0
-129 227 283 0
129 -227 283 0
-129 -227 -283 0
130 227 -284 0
-130 227 284 0
130 -227 284 0
-130 -227 -284 0
131 227 -285 0
-131 227 285 0
131 -227 285 0
-131 -227 -285 0
132 227 -286 0
-132 227 286 0
132 -227 286 0
-132 -227 -286 0
133 227 -287 0
-133 227 287 0
133 -227 287 0
-133 -227 -287 0
134 227 -288 0
-134 227 288 0
134 -227 288 0
-134 -227 -288 0
135 227 -289 0
-135 227 289 0
135 -227 289 0
-135 -227 -289 0
136 227 -290 0
-136 227 290 0
136 -227 290 0
-136 -227 -290 0
137 227 -291 0
-137 227 291 0
137 -227 291 0
-137 -227 -291 0
138 227 -292 0
-138 227 292 0
138 -227 292 0
-138 -227 -292 0
139 227 -293 0
-139 227 293 0
139 -227 293 0
-139 -227 -293 0
140 227 -294 0
-140 227 294 0
140 -227 294 0
-140 -227 -294 0
141 227 -295 0
-141 227 295 0
141 -227 295 0
-141 -227 -295 0
142 227 -296 0
-142 227 296 0
142 -227 296 0
-142 -227 -296 0
143 227 -297 0
-143 227 297 0
143 -227 297 0
-143 -227 -297 0
144 227 -298 0
-144 227 298 0
144 -227 298 0
-144 -227 -298 0
145 227 -299 0
-145 227 299 0
145 -227 299 0
-145 -227 -299 0
146 227 -300 0
-146 227 300 0
146 -227 300 0
-146 -227 -300 0
147 227 -301 0
-147 227 301 0
147 -227 301 0
-147 -227 -301 0
148 227 -302 0
-148 227 302 0
148 -227 302 0
-148 -227 -302 0
149 227 -303 0
-149 227 303 0
149 -227 303 0
-149 -227 -303 0
150 227 -304 0
-150 227 304 0
150 -227 304 0
-150 -227 -304 0
1 230 -306 0
-1 230 306 0
1 -230 306 0
-1 -230 -306 0
306 227 -151 0
-306 227 151 0
306 -227 151 0
-306 -227 -151 0
227 -307 0
306 -307 0
-227 -306 307 0
230 -308 0
1 -308 0
-230 -1 308 0
-307 305 0
-308 305 0
307 308 -305 0
2 231 -310 0
-2 231 310 0
2 -231 310 0
-2 -231 -310 0
310 305 -152 0
-310 305 152 0
310 -305 152 0
-310 -305 -152 0
305 -311 0
310 -311 0
-305 -310 311 0
231 -312 0
2 -312 0
-231 -2 312 0
-311 309 0
-312 309 0
311 312 -309 0
3 232 -314 0
-3 232 314 0
3 -232 314 0
-3 -232 -314 0
314 309 -153 0
-314 309 153 0
314 -309 153 0
-314 -309 -153 0
309 -315 0
314 -315 0
-309 -314 315 0
232 -316 0
3 -316 0
-232 -3 316 0
-315 313 0
-316 313 0
315 316 -313 0
4 233 -318 0
-4 233 318 0
4 -233 318 0
-4 -233 -318 0
318 313 -154 0
-318 313 154 0
318 -313 154 0
-318 -313 -154 0
313 -319 0
318 -319 0
-313 -318 319 0
233 -320 0
4 -320 0
-233 -4 320 0
-319 317 0
-320 317 0
319 320 -317 0
5 234 -322 0
-5 234 322 0
5 -234 322 0
-5 -234 -322 0
322 317 -155 0
-322 317 155 0
322 -317 155 0
-322 -317 -155 0
317 -323 0
322 -323 0
-317 -322 323 0
234 -324 0
5 -324 0
-234 -5 324 0
-323 321 0
-324 321 0
323 324 -321 0
6 235 -326 0
-6 235 326 0
6 -235 326 0
-6 -235 -326 0
326 321 -156 0
-326 321 156 0
326 -321 156 0
-326 -321 -156 0
321 -327 0
326 -327 0
-321 -326 327 0
235 -328 0
6 -328 0
-235 -6 328 0
-327 325 0
-328 325 0
327 328 -325 0
7 236 -330 0
-7 236 330 0
7 -236 330 0
-7 -236 -330 0
330 325 -157 0
-330 325 157 0
330 -325 157 0
-330 -325 -157 0
325 -331 0
330 -331 0
-325 -330 331 0
236 -332 0
7 -332 0
-236 -7 332 0
-331 329 0
-332 329 0
331 332 -329 0
8 237 -334 0
-8 237 334 0
8 -237 334 0
-8 -237 -334 0
334 329 -158 0
-334 329 158 0
334 -329 158 0
-334 -329 -158 0
329 -335 0
334 -335 0
-329 -334 335 0
237 -336 0
8 -336 0
-237 -8 336 0
-335 333 0
-336 333 0
335 336 -333 0
9 238 -338 0
-9 238 338 0
9 -238 338 0
-9 -238 -338 0
338 333 -159 0
-338 333 159 0
338 -333 159 0
-338 -333 -159 0
333 -339 0
338 -339 0
-333 -338 339 0
238 -340 0
9 -340 0
-238 -9 340 0
-339 337 0
-340 337 0
339 340 -337 0
10 239 -342 0
-10 239 342 0
10 -239 342 0
-10 -239 -342 0
342 337 -160 0
-342 337 160 0
342 -337 160 0
-342 -337 -160 0
337 -343 0
342 -343 0
-337 -342 343 0
239 -344 0
10 -344 0
-239 -10 344 0
-343 341 0
-344 341 0
343 344 -341 0
11 240 -346 0
-11 240 346 0
11 -240 346 0
-11 -240 -346 0
346 341 -161 0
-346 341 161 0
346 -341 161 0
-346 -341 -161 0
341 -347 0
346 -347 0
-341 -346 347 0
240 -348 0
11 -348 0
-240 -11 348 0
-347 345 0
-348 345 0
347 348 -345 0
12 241 -350 0
-12 241 350 0
12 -241 350 0
-12 -241 -350 0
350 345 -162 0
-350 345 162 0
350 -345 162 0
-350 -345 -162 0
345 -351 0
350 -351 0
-345 -350 351 0
241 -352 0
12 -352 0
-241 -12 352 0
-351 349 0
-352 349 0
351 352 -349 0
13 242 -354 0
-13 242 354 0
13 -242 354 0
-13 -242 -354 0
354 349 -163 0
-354 349 163 0
354 -349 163 0
-354 -349 -163 0
349 -355 0
354 -355 0
-349 -354 355 0
242 -356 0
13 -356 0
-242 -13 356 0
-355 353 0
-356 353 0
355 356 -353 0
14 243 -358 0
-14 243 358 0
14 -243 358 0
-14 -243 -358 0
358 353 -164 0
-358 353 164 0
358 -353 164 0
-358 -353 -164 0
353 -359 0
358 -359 0
-353 -358 359 0
243 -360 0
14 -360 0
-243 -14 360 0
-359 357 0
-360 357 0
359 360 -357 0
15 244 -362 0
-15 244 362 0
15 -244 362 0
-15 -244 -362 0
362 357 -165 0
-362 357 165 0
362 -357 165 0
-362 -357 -165 0
357 -363 0
362 -363 0
-357 -362 363 0
244 -364 0
15 -364 0
-244 -15 364 0
-363 361 0
-364 361 0
363 364 -361 0
16 245 -366 0
-16 245 366 0
16 -245 366 0
-16 -245 -366 0
366 361 -166 0
-366 361 166 0
366 -361 166 0
-366 -361 -166 0
361 -367 0
366 -367 0
-361 -366 367 0
245 -368 0
16 -368 0
-245 -16 368 0
-367 365 0
-368 365 0
367 368 -365 0
17 246 -370 0
-17 246 370 0
17 -246 370 0
-17 -246 -370 0
370 365 -167 0
-370 365 167 0
370 -365 167 0
-370 -365 -167 0
365 -371 0
370 -371 0
-365 -370 371 0
246 -372 0
17 -372 0
-246 -17 372 0
-371 369 0
-372 369 0
371 372 -369 0
18 247 -374 0
-18 247 374 0
18 -247 374 0
-18 -247 -374 0
374 369 -168 0
-374 369 168 0
374 -369 168 0
-374 -369 -168 0
369 -375 0
374 -375 0
-369 -374 375 0
247 -376 0
18 -376 0
-247 -18 376 0
-375 373 0
-376 373 0
375 376 -373 0
19 248 -378 0
-19 248 378 0
19 -248 378 0
-19 -248 -378 0
378 373 -169 0
-378 373 169 0
378 -373 169 0
-378 -373 -169 0
373 -379 0
378 -379 0
-373 -378 379 0
248 -380 0
19 -380 0
-248 -19 380 0
-379 377 0
-380 377 0
379 380 -377 0
20 249 -382 0
-20 249 382 0
20 -249 382 0
-20 -249 -382 0
382 377 -170 0
-382 377 170 0
382 -377 170 0
-382 -377 -170 0
377 -383 0
382 -383 0
-377 -382 383 0
249 -384 0
20 -384 0
-249 -20 384 0
-383 381 0
-384 381 0
383 384 -381 0
21 250 -386 0
-21 250 386 0
21 -250 386 0
-21 -250 -386 0
386 381 -171 0
-386 381 171 0
386 -381 171 0
-386 -381 -171 0
381 -387 0
386 -387 0
-381 -386 387 0
250 -388 0
21 -388 0
-250 -21 388 0
-387 385 0
-388 385 0
387 388 -385 0
22 251 -390 0
-22 251 390 0
22 -251 390 0
-22 -251 -390 0
390 385 -172 0
-390 385 172 0
390 -385 172 0
-390 -385 -172 0
385 -391 0
390 -391 0
-385 -390 391 0
251 -392 0
22 -392 0
-251 -22 392 0
-391 389 0
-392 389 0
391 392 -389 0
23 252 -394 0
-23 252 394 0
23 -252 394 0
-23 -252 -394 0
394 389 -173 0
-394 389 173 0
394 -389 173 0
-394 -389 -173 0
389 -395 0
394 -395 0
-389 -394 395 0
252 -396 0
23 -396 0
-252 -23 396 0
-395 393 0
-396 393 0
395 396 -393 0
24 253 -398 0
-24 253 398 0
24 -253 398 0
-24 -253 -398 0
398 393 -174 0
-398 393 174 0
398 -393 174 0
-398 -393 -174 0
393 -399 0
398 -399 0
-393 -398 399 0
253 -400 0
24 -400 0
-253 -24 400 0
-399 397 0
-400 397 0
399 400 -397 0
25 254 -402 0
-25 254 402 0
25 -254 402 0
-25 -254 -402 0
402 397 -175 0
-402 397 175 0
402 -397 175 0
-402 -397 -175 0
397 -403 0
402 -403 0
-397 -402 403 0
254 -404 0
25 -404 0
-254 -25 404 0
-403 401 0
-404 401 0
403 404 -401 0
26 255 -406 0
-26 255 406 0
26 -255 406 0
-26 -255 -406 0
406 401 -176 0
-406 401 176 0
406 -401 176 0
-406 -401 -176 0
401 -407 0
406 -407 0
-401 -406 407 0
255 -408 0
26 -408 0
-255 -26 408 0
-407 405 0
-408 405 0
407 408 -405 0
27 256 -410 0
-27 256 410 0
27 -256 410 0
-27 -256 -410 0
410 405 -177 0
-410 405 177 0
410 -405 177 0
-410 -405 -177 0
405 -411 0
410 -411 0
-405 -410 411 0
256 -412 0
27 -412 0
-256 -27 412 0
-411 409 0
-412 409 0
411 412 -409 0
28 257 -414 0
-28 257 414 0
28 -257 414 0
-28 -257 -414 0
414 409 -178 0
-414 409 178 0
414 -409 178 0
-414 -409 -178 0
409 -415 0
414 -415 0
-409 -414 415 0
257 -416 0
28 -416 0
-257 -28 416 0
-415 413 0
-416 413 0
415 416 -413 0
29 258 -418 0
-29 258 418 0
29 -258 418 0
-29 -258 -418 0
418 413 -179 0
-418 413 179 0
418 -413 179 0
-418 -413 -179 0
413 -419 0
418 -419 0
-413 -418 419 0
258 -420 0
29 -420 0
-258 -29 420 0
-419 417 0
-420 417 0
419 420 -417 0
30 259 -422 0
-30 259 422 0
30 -259 422 0
-30 -259 -422 0
422 417 -180 0
-422 417 180 0
422 -417 180 0
-422 -417 -180 0
417 -423 0
422 -423 0
-417 -422 423 0
259 -424 0
30 -424 0
-259 -30 424 0
-423 421 0
-424 421 0
423 424 -421 0
31 260 -426 0
-31 260 426 0
31 -260 426 0
-31 -260 -426 0
426 421 -181 0
-426 421 181 0
426 -421 181 0
-426 -421 -181 0
421 -427 0
426 -427 0
-421 -426 427 0
260 -428 0
31 -428 0
-260 -31 428 0
-427 425 0
-428 425 0
427 428 -425 0
32 261 -430 0
-32 261 430 0
32 -261 430 0
-32 -261 -430 0
430 425 -182 0
-430 425 182 0
430 -425 182 0
-430 -425 -182 0
425 -431 0
430 -431 0
-425 -430 431 0
261 -432 0
32 -432 0
-261 -32 432 0
-431 429 0
-432 429 0
431 432 -429 0
33 262 -434 0
-33 262 434 0
33 -262 434 0
-33 -262 -434 0
434 429 -183 0
-434 429 183 0
434 -429 183 0
-434 -429 -183 0
429 -435 0
434 -435 0
-429 -434 435 0
262 -436 0
33 -436 0
-262 -33 436 0
-435 433 0
-436 433 0
435 436 -433 0
34 263 -438 0
-34 263 438 0
34 -263 438 0
-34 -263 -438 0
438 433 -184 0
-438 433 184 0
438 -433 184 0
-438 -433 -184 0
433 -439 0
438 -439 0
-433 -438 439 0
263 -440 0
34 -440 0
-263 -34 440 0
-439 437 0
-440 437 0
439 440 -437 0
35 264 -442 0
-35 264 442 0
35 -264 442 0
-35 -264 -442 0
442 437 -185 0
-442 437 185 0
442 -437 185 0
-442 -437 -185 0
437 -443 0
442 -443 0
-437 -442 443 0
264 -444 0
35 -444 0
-264 -35 444 0
-443 441 0
-444 441 0
443 444 -441 0
36 265 -446 0
-36 265 446 0
36 -265 446 0
-36 -265 -446 0
446 441 -186 0
-446 441 186 0
446 -441 186 0
-446 -441 -186 0
441 -447 0
446 -447 0
-441 -446 447 0
265 -448 0
36 -448 0
-265 -36 448 0
-447 445 0
-448 445 0
447 448 -445 0
37 266 -450 0
-37 266 450 0
37 -266 450 0
-37 -266 -450 0
450 445 -187 0
-450 445 187 0
450 -445 187 0
-450 -445 -187 0
445 -451 0
450 -451 0
-445 -450 451 0
266 -452 0
37 -452 0
-266 -37 452 0
-451 449 0
-452 449 0
451 452 -449 0
38 267 -454 0
-38 267 454 0
38 -267 454 0
-38 -267 -454 0
454 449 -188 0
-454 449 188 0
454 -449 188 0
-454 -449 -188 0
449 -455 0
454 -455 0
-449 -454 455 0
267 -456 0
38 -456 0
-267 -38 456 0
-455 453 0
-456 453 0
455 456 -453 0
39 268 -458 0
-39 268 458 0
39 -268 458 0
-39 -268 -458 0
458 453 -189 0
-458 453 189 0
458 -453 189 0
-458 -453 -189 0
453 -459 0
458 -459 0
-453 -458 459 0
268 -460 0
39 -460 0
-268 -39 460 0
-459 457 0
-460 457 0
459 460 -457 0
40 269 -462 0
-40 269 462 0
40 -269 462 0
-40 -269 -462 0
462 457 -190 0
-462 457 190 0
462 -457 190 0
-462 -457 -190 0
457 -463 0
462 -463 0
-457 -462 463 0
269 -464 0
40 -464 0
-269 -40 464 0
-463 461 0
-464 461 0
463 464 -461 0
41 270 -466 0
-41 270 466 0
41 -270 466 0
-41 -270 -466 0
466 461 -191 0
-466 461 191 0
466 -461 191 0
-466 -461 -191 0
461 -467 0
466 -467 0
-461 -466 467 0
270 -468 0
41 -468 0
-270 -41 468 0
-467 465 0
-468 465 0
467 468 -465 0
42 271 -470 0
-42 271 470 0
42 -271 470 0
-42 -271 -470 0
470 465 -192 0
-470 465 192 0
470 -465 192 0
-470 -465 -192 0
465 -471 0
470 -471 0
-465 -470 471 0
271 -472 0
42 -472 0
-271 -42 472 0
-471 469 0
-472 469 0
471 472 -469 0
43 272 -474 0
-43 272 474 0
43 -272 474 0
-43 -272 -474 0
474 469 -193 0
-474 469 193 0
474 -469 193 0
-474 -469 -193 0
469 -475 0
474 -475 0
-469 -474 475 0
272 -476 0
43 -476 0
-272 -43 476 0
-475 473 0
-476 473 0
475 476 -473 0
44 273 -478 0
-44 273 478 0
44 -273 478 0
-44 -273 -478 0
478 473 -194 0
-478 473 194 0
478 -473 194 0
-478 -473 -194 0
473 -479 0
478 -479 0
-473 -478 479 0
273 -480 0
44 -480 0
-273 -44 480 0
-479 477 0
-480 477 0
479 480 -477 0
45 274 -482 0
-45 274 482 0
45 -274 482 0
-45 -274 -482 0
482 477 -195 0
-482 477 195 0
482 -477 195 0
-482 -477 -195 0
477 -483 0
482 -483 0
-477 -482 483 0
274 -484 0
45 -484 0
-274 -45 484 0
-483 481 0
-484 481 0
483 484 -481 0
46 275 -486 0
-46 275 486 0
46 -275 486 0
-46 -275 -486 0
486 481 -196 0
-486 481 196 0
486 -481 196 0
-486 -481 -196 0
481 -487 0
486 -487 0
-481 -486 487 0
275 -488 0
46 -488 0
-275 -46 488 0
-487 485 0
-488 485 0
487 488 -485 0
47 276 -490 0
-47 276 490 0
47 -276 490 0
-47 -276 -490 0
490 485 -197 0
-490 485 197 0
490 -485 197 0
-490 -485 -197 0
485 -491 0
490 -491 0
-485 -490 491 0
276 -492 0
47 -492 0
-276 -47 492 0
-491 489 0
-492 489 0
491 492 -489 0
48 277 -494 0
-48 277 494 0
48 -277 494 0
-48 -277 -494 0
494 489 -198 0
-494 489 198 0
494 -489 198 0
-494 -489 -198 0
489 -495 0
494 -495 0
-489 -494 495 0
277 -496 0
48 -496 0
-277 -48 496 0
-495 493 0
-496 493 0
495 496 -493 0
49 278 -498 0
-49 278 498 0
49 -278 498 0
-49 -278 -498 0
498 493 -199 0
-498 493 199 0
498 -493 199 0
-498 -493 -199 0
493 -499 0
498 -499 0
-493 -498 499 0
278 -500 0
49 -500 0
-278 -49 500 0
-499 497 0
-500 497 0
499 500 -497 0
50 279 -502 0
-50 279 502 0
50 -279 502 0
-50 -279 -502 0
502 497 -200 0
-502 497 200 0
502 -497 200 0
-502 -497 -200 0
497 -503 0
502 -503 0
-497 -502 503 0
279 -504 0
50 -504 0
-279 -50 504 0
-503 501 0
-504 501 0
503 504 -501 0
51 280 -506 0
-51 280 506 0
51 -280 506 0
-51 -280 -506 0
506 501 -201 0
-506 501 201 0
506 -501 201 0
-506 -501 -201 0
501 -507 0
506 -507 0
-501 -506 507 0
280 -508 0
51 -508 0
-280 -51 508 0
-507 505 0
-508 505 0
507 508 -505 0
52 281 -510 0
-52 281 510 0
52 -281 510 0
-52 -281 -510 0
510 505 -202 0
-510 505 202 0
510 -505 202 0
-510 -505 -202 0
505 -511 0
510 -511 0
-505 -510 511 0
281 -512 0
52 -512 0
-281 -52 512 0
-511 509 0
-512 509 0
511 512 -509 0
53 282 -514 0
-53 282 514 0
53 -282 514 0
-53 -282 -514 0
514 509 -203 0
-514 509 203 0
514 -509 203 0
-514 -509 -203 0
509 -515 0
514 -515 0
-509 -514 515 0
282 -516 0
53 -516 0
-282 -53 516 0
-515 513 0
-516 513 0
515 516 -513 0
54 283 -518 0
-54 283 518 0
54 -283 518 0
-54 -283 -518 0
518 513 -204 0
-518 513 204 0
518 -513 204 0
-518 -513 -204 0
513 -519 0
518 -519 0
-513 -518 519 0
283 -520 0
54 -520 0
-283 -54 520 0
-519 517 0
-520 517 0
519 520 -517 0
55 284 -522 0
-55 284 522 0
55 -284 522 0
-55 -284 -522 0
522 517 -205 0
-522 517 205 0
522 -517 205 0
-522 -517 -205 0
517 -523 0
522 -523 0
-517 -522 523 0
284 -524 0
55 -524 0
-284 -55 524 0
-523 521 0
-524 521 0
523 524 -521 0
56 285 -526 0
-56 285 526 0
56 -285 526 0
-56 -285 -526 0
526 521 -206 0
-526 521 206 0
526 -521 206 0
-526 -521 -206 0
521 -527 0
526 -527 0
-521 -526 527 0
285 -528 0
56 -528 0
-285 -56 528 0
-527 525 0
-528 525 0
527 528 -525 0
57 286 -530 0
-57 286 530 0
57 -286 530 0
-57 -286 -530 0
530 525 -207 0
-530 525 207 0
530 -525 207 0
-530 -525 -207 0
525 -531 0
530 -531 0
-525 -530 531 0
286 -532 0
57 -532 0
-286 -57 532 0
-531 529 0
-532 529 0
531 532 -529 0
58 287 -534 0
-58 287 534 0
58 -287 534 0
-58 -287 -534 0
534 529 -208 0
-534 529 208 0
534 -529 208 0
-534 -529 -208 0
529 -535 0
534 -535 0
-529 -534 535 0
287 -536 0
58 -536 0
-287 -58 536 0
-535 533 0
-536 533 0
535 536 -533 0
59 288 -538 0
-59 288 538 0
59 -288 538 0
-59 -288 -538 0
538 533 -209 0
-538 533 209 0
538 -533 209 0
-538 -533 -209 0
533 -539 0
538 -539 0
-533 -538 539 0
288 -540 0
59 -540 0
-288 -59 540 0
-539 537 0
-540 537 0
539 540 -537 0
60 289 -542 0
-60 289 542 0
60 -289 542 0
-60 -289 -542 0
542 537 -210 0
-542 537 210 0
542 -537 210 0
-542 -537 -210 0
537 -543 0
542 -543 0
-537 -542 543 0
289 -544 0
60 -544 0
-289 -60 544 0
-543 541 0
-544 541 0
543 544 -541 0
61 290 -546 0
-61 290 546 0
61 -290 546 0
-61 -290 -546 0
546 541 -211 0
-546 541 211 0
546 -541 211 0
-546 -541 -211 0
541 -547 0
546 -547 0
-541 -546 547 0
290 -548 0
61 -548 0
-290 -61 548 0
-547 545 0
-548 545 0
547 548 -545 0
62 291 -550 0
-62 291 550 0
62 -291 550 0
-62 -291 -550 0
550 545 -212 0
-550 545 212 0
550 -545 212 0
-550 -545 -212 0
545 -551 0
550 -551 0
-545 -550 551 0
291 -552 0
62 -552 0
-291 -62 552 0
-551 549 0
-552 549 0
551 552 -549 0
63 292 -554 0
-63 292 554 0
63 -292 554 0
-63 -292 -554 0
554 549 -213 0
-554 549 213 0
554 -549 213 0
-554 -549 -213 0
549 -555 0
554 -555 0
-549 -554 555 0
292 -556 0
63 -556 0
-292 -63 556 0
-555 553 0
-556 553 0
555 556 -553 0
64 293 -558 0
-64 293 558 0
64 -293 558 0
-64 -293 -558 0
558 553 -214 0
-558 553 214 0
558 -553 214 0
-558 -553 -214 0
553 -559 0
558 -559 0
-553 -558 559 0
293 -560 0
64 -560 0
-293 -64 560 0
-559 557 0
-560 557 0
559 560 -557 0
65 294 -562 0
-65 294 562 0
65 -294 562 0
-65 -294 -562 0
562 557 -215 0
-562 557 215 0
562 -557 215 0
-562 -557 -215 0
557 -563 0
562 -563 0
-557 -562 563 0
294 -564 0
65 -564 0
-294 -65 564 0
-563 561 0
-564 561 0
563 564 -561 0
66 295 -566 0
-66 295 566 0
66 -295 566 0
-66 -295 -566 0
566 561 -216 0
-566 561 216 0
566 -561 216 0
-566 -561 -216 0
561 -567 0
566 -567 0
-561 -566 567 0
295 -568 0
66 -568 0
-295 -66 568 0
-567 565 0
-568 565 0
567 568 -565 0
67 296 -570 0
-67 296 570 0
67 -296 570 0
-67 -296 -570 0
570 565 -217 0
-570 565 217 0
570 -565 217 0
-570 -565 -217 0
565 -571 0
570 -571 0
-565 -570 571 0
296 -572 0
67 -572 0
-296 -67 572 0
-571 569 0
-572 569 0
571 572 -569 0
68 297 -574 0
-68 297 574 0
68 -297 574 0
-68 -297 -574 0
574 569 -218 0
-574 569 218 0
574 -569 218 0
-574 -569 -218 0
569 -575 0
574 -575 0
-569 -574 575 0
297 -576 0
68 -576 0
-297 -68 576 0
-575 573 0
-576 573 0
575 576 -573 0
69 298 -578 0
-69 298 578 0
69 -298 578 0
-69 -298 -578 0
578 573 -219 0
-578 573 219 0
578 -573 219 0
-578 -573 -219 0
573 -579 0
578 -579 0
-573 -578 579 0
298 -580 0
69 -580 0
-298 -69 580 0
-579 577 0
-580 577 0
579 580 -577 0
70 299 -582 0
-70 299 582 0
70 -299 582 0
-70 -299 -582 0
582 577 -220 0
-582 577 220 0
582 -577 220 0
-582 -577 -220 0
577 -583 0
582 -583 0
-577 -582 583 0
299 -584 0
70 -584 0
-299 -70 584 0
-583 581 0
-584 581 0
583 584 -581 0
71 300 -586 0
-71 300 586 0
71 -300 586 0
-71 -300 -586 0
586 581 -221 0
-586 581 221 0
586 -581 221 0
-586 -581 -221 0
581 -587 0
586 -587 0
-581 -586 587 0
300 -588 0
71 -588 0
-300 -71 588 0
-587 585 0
-588 585 0
587 588 -585 0
72 301 -590 0
-72 301 590 0
72 -301 590 0
-72 -301 -590 0
590 585 -222 0
-590 585 222 0
590 -585 222 0
-590 -585 -222 0
585 -591 0
590 -591 0
-585 -590 591 0
301 -592 0
72 -592 0
-301 -72 592 0
-591 589 0
-592 589 0
591 592 -589 0
73 302 -594 0
-73 302 594 0
73 -302 594 0
-73 -302 -594 0
594 589 -223 0
-594 589 223 0
594 -589 223 0
-594 -589 -223 0
589 -595 0
594 -595 0
-589 -594 595 0
302 -596 0
73 -596 0
-302 -73 596 0
-595 593 0
-596 593 0
595 596 -593 0
74 303 -598 0
-74 303 598 0
74 -303 598 0
-74 -303 -598 0
598 593 -224 0
-598 593 224 0
598 -593 224 0
-598 -593 -224 0
593 -599 0
598 -599 0
-593 -598 599 0
303 -600 0
74 -600 0
-303 -74 600 0
-599 597 0
-600 597 0
599 600 -597 0
75 304 -602 0
-75 304 602 0
75 -304 602 0
-75 -304 -602 0
602 597 -225 0
-602 597 225 0
602 -597 225 0
-602 -597 -225 0
597 -603 0
602 -603 0
-597 -602 603 0
304 -604 0
75 -604 0
-304 -75 604 0
-603 601 0
-604 601 0
603 604 -601 0
601 227 -226 0
-601 227 226 0
601 -227 226 0
-601 -227 -226 0
